44
75
59	1
58	4
57	1
55	6
54	2
53	2
52	3
51	2
50	3
49	2
48	1
47	1
46	1
45	2
44	2
43	3
41	1
40	3
39	2
38	2
37	3
36	3
35	3
34	4
32	1
31	2
27	1
25	2
24	1
23	1
22	1
20	4
19	2
18	1
17	5
16	2
15	2
13	2
12	2
11	1
10	1
9	4
8	5
7	3
